(set-logic QF_NRA)
(set-info :source |Benchmarks generated from hycomp (https://es-static.fbk.eu/tools/hycomp/). BMC instances of non-linear hybrid automata taken from: Alessandro Cimatti, Sergio Mover, Stefano Tonetta, A quantifier-free SMT encoding of non-linear hybrid automata, FMCAD 2012 and Alessandro Cimatti, Sergio Mover, Stefano Tonetta, Quantier-free encoding of invariants for Hybrid Systems, Formal Methods in System Design. This instance solves a BMC problem of depth 0 and uses the quantifier free encoding with lemmas encoding. Contacts: Sergio Mover (mover@fbk.eu), Stefano Tonetta (tonettas@fbk.eu), Alessandro Cimatti (cimatti@fbk.eu).|)
(set-info :smt-lib-version 2.0)
(set-info :category "industrial")
(set-info :status unsat)
;; MathSAT API call trace
;; generated on Mon Mar 19 10:41:49 2012
(declare-fun b.counter.0__AT0 () Bool)
(declare-fun b.counter.1__AT0 () Bool)
(declare-fun b.counter.2__AT0 () Bool)
(declare-fun b.delta__AT0 () Real)
(declare-fun b.EVENT.0__AT0 () Bool)
(declare-fun b.EVENT.1__AT0 () Bool)
(declare-fun b.speed_loss__AT0 () Real)
(declare-fun b.counter.3__AT0 () Bool)
(declare-fun b.x__AT0 () Real)
(declare-fun b.speed_y__AT0 () Real)
(declare-fun b.event_is_timed__AT0 () Bool)
(declare-fun b.speed_x__AT0 () Real)
(declare-fun b.time__AT0 () Real)
(declare-fun b.y__AT0 () Real)
(assert (let ((.def_83 (* (- (/ 49 10)) b.speed_y__AT0)))
(let ((.def_114 (* 3.0 .def_83)))
(let ((.def_278 (* (- 1.0) .def_114)))
(let ((.def_300 (* 2.0 .def_278)))
(let ((.def_342 (* (- 1.0) .def_300)))
(let ((.def_343 (* b.delta__AT0 .def_342)))
(let ((.def_344 (* (- 50.0) .def_343)))
(let ((.def_88 (* b.speed_y__AT0 b.speed_y__AT0)))
(let ((.def_177 (* (- 50.0) .def_88)))
(let ((.def_348 (+ .def_177 .def_344)))
(let ((.def_74 (* b.delta__AT0 b.delta__AT0)))
(let ((.def_175 (* (- 7203.0) .def_74)))
(let ((.def_349 (+ .def_175 .def_348)))
(let ((.def_180 (* 490.0 b.y__AT0)))
(let ((.def_350 (+ .def_180 .def_349)))
(let ((.def_353 (<= 0.0 .def_350)))
(let ((.def_360 (not .def_353)))
(let ((.def_189 (* (- 5.0) .def_88)))
(let ((.def_190 (* 49.0 b.y__AT0)))
(let ((.def_192 (+ .def_190 .def_189)))
(let ((.def_203 (<= 0.0 .def_192)))
(let ((.def_361 (or .def_203 .def_360)))
(let ((.def_351 (<= .def_350 0.0 )))
(let ((.def_193 (<= .def_192 0.0 )))
(let ((.def_194 (not .def_193)))
(let ((.def_359 (or .def_194 .def_351)))
(let ((.def_362 (and .def_359 .def_361)))
(let ((.def_234 (<= 0.0 b.speed_y__AT0)))
(let ((.def_235 (not .def_234)))
(let ((.def_220 (* (- 49.0) b.delta__AT0)))
(let ((.def_221 (* 5.0 b.speed_y__AT0)))
(let ((.def_223 (+ .def_221 .def_220)))
(let ((.def_232 (<= 0.0 .def_223)))
(let ((.def_233 (not .def_232)))
(let ((.def_236 (or .def_233 .def_235)))
(let ((.def_237 (not .def_236)))
(let ((.def_363 (or .def_237 .def_362)))
(let ((.def_355 (not .def_351)))
(let ((.def_356 (or .def_193 .def_355)))
(let ((.def_204 (not .def_203)))
(let ((.def_354 (or .def_204 .def_353)))
(let ((.def_357 (and .def_354 .def_356)))
(let ((.def_224 (<= .def_223 0.0 )))
(let ((.def_225 (not .def_224)))
(let ((.def_217 (<= b.speed_y__AT0 0.0 )))
(let ((.def_218 (not .def_217)))
(let ((.def_226 (or .def_218 .def_225)))
(let ((.def_227 (not .def_226)))
(let ((.def_358 (or .def_227 .def_357)))
(let ((.def_364 (and .def_358 .def_363)))
(let ((.def_352 (and .def_193 .def_351)))
(let ((.def_365 (and .def_352 .def_364)))
(let ((.def_246 (and .def_232 .def_234)))
(let ((.def_243 (or .def_233 .def_234)))
(let ((.def_242 (or .def_218 .def_224)))
(let ((.def_244 (and .def_242 .def_243)))
(let ((.def_247 (and .def_244 .def_246)))
(let ((.def_241 (and .def_217 .def_224)))
(let ((.def_245 (and .def_241 .def_244)))
(let ((.def_248 (or .def_245 .def_247)))
(let ((.def_366 (and .def_248 .def_365)))
(let ((.def_301 (* b.delta__AT0 .def_300)))
(let ((.def_302 (* 50.0 .def_301)))
(let ((.def_306 (+ .def_177 .def_302)))
(let ((.def_307 (+ .def_175 .def_306)))
(let ((.def_308 (+ .def_180 .def_307)))
(let ((.def_319 (<= .def_308 0.0 )))
(let ((.def_320 (not .def_319)))
(let ((.def_336 (or .def_193 .def_320)))
(let ((.def_309 (<= 0.0 .def_308)))
(let ((.def_335 (or .def_204 .def_309)))
(let ((.def_337 (and .def_335 .def_336)))
(let ((.def_338 (or .def_227 .def_337)))
(let ((.def_310 (not .def_309)))
(let ((.def_332 (or .def_203 .def_310)))
(let ((.def_331 (or .def_194 .def_319)))
(let ((.def_333 (and .def_331 .def_332)))
(let ((.def_334 (or .def_237 .def_333)))
(let ((.def_339 (and .def_334 .def_338)))
(let ((.def_330 (and .def_203 .def_309)))
(let ((.def_340 (and .def_330 .def_339)))
(let ((.def_341 (and .def_248 .def_340)))
(let ((.def_367 (or .def_341 .def_366)))
(let ((.def_92 (* (- (/ 49 10)) b.y__AT0)))
(let ((.def_123 (* 2.0 .def_92)))
(let ((.def_287 (* (- 1.0) .def_123)))
(let ((.def_288 (* b.delta__AT0 .def_287)))
(let ((.def_289 (* (- 50.0) .def_288)))
(let ((.def_118 (* 2.0 .def_88)))
(let ((.def_282 (* (- 1.0) .def_118)))
(let ((.def_283 (* b.delta__AT0 .def_282)))
(let ((.def_285 (* (- 25.0) .def_283)))
(let ((.def_293 (+ .def_285 .def_289)))
(let ((.def_279 (* .def_74 .def_278)))
(let ((.def_280 (* (- 50.0) .def_279)))
(let ((.def_294 (+ .def_280 .def_293)))
(let ((.def_96 (* b.y__AT0 b.speed_y__AT0)))
(let ((.def_129 (* 50.0 .def_96)))
(let ((.def_295 (+ .def_129 .def_294)))
(let ((.def_75 (* b.delta__AT0 .def_74)))
(let ((.def_127 (* 2401.0 .def_75)))
(let ((.def_296 (+ .def_127 .def_295)))
(let ((.def_131 (* 25.0 b.speed_x__AT0)))
(let ((.def_297 (+ .def_131 .def_296)))
(let ((.def_313 (<= 0.0 .def_297)))
(let ((.def_324 (not .def_313)))
(let ((.def_140 (* 2.0 .def_96)))
(let ((.def_141 (+ b.speed_x__AT0 .def_140)))
(let ((.def_142 (<= 0.0 .def_141)))
(let ((.def_325 (or .def_142 .def_324)))
(let ((.def_298 (<= .def_297 0.0 )))
(let ((.def_156 (<= .def_141 0.0 )))
(let ((.def_157 (not .def_156)))
(let ((.def_323 (or .def_157 .def_298)))
(let ((.def_326 (and .def_323 .def_325)))
(let ((.def_321 (or .def_194 .def_320)))
(let ((.def_322 (not .def_321)))
(let ((.def_327 (or .def_322 .def_326)))
(let ((.def_315 (not .def_298)))
(let ((.def_316 (or .def_156 .def_315)))
(let ((.def_143 (not .def_142)))
(let ((.def_314 (or .def_143 .def_313)))
(let ((.def_317 (and .def_314 .def_316)))
(let ((.def_311 (or .def_204 .def_310)))
(let ((.def_312 (not .def_311)))
(let ((.def_318 (or .def_312 .def_317)))
(let ((.def_328 (and .def_318 .def_327)))
(let ((.def_299 (and .def_156 .def_298)))
(let ((.def_329 (and .def_299 .def_328)))
(let ((.def_368 (and .def_329 .def_367)))
(let ((.def_169 (* 2.0 .def_114)))
(let ((.def_251 (* (- 1.0) .def_169)))
(let ((.def_252 (* b.delta__AT0 .def_251)))
(let ((.def_253 (* 50.0 .def_252)))
(let ((.def_257 (+ .def_177 .def_253)))
(let ((.def_258 (+ .def_175 .def_257)))
(let ((.def_259 (+ .def_180 .def_258)))
(let ((.def_262 (<= .def_259 0.0 )))
(let ((.def_269 (not .def_262)))
(let ((.def_270 (or .def_193 .def_269)))
(let ((.def_260 (<= 0.0 .def_259)))
(let ((.def_268 (or .def_204 .def_260)))
(let ((.def_271 (and .def_268 .def_270)))
(let ((.def_272 (or .def_227 .def_271)))
(let ((.def_264 (not .def_260)))
(let ((.def_265 (or .def_203 .def_264)))
(let ((.def_263 (or .def_194 .def_262)))
(let ((.def_266 (and .def_263 .def_265)))
(let ((.def_267 (or .def_237 .def_266)))
(let ((.def_273 (and .def_267 .def_272)))
(let ((.def_261 (and .def_203 .def_260)))
(let ((.def_274 (and .def_261 .def_273)))
(let ((.def_275 (and .def_248 .def_274)))
(let ((.def_170 (* b.delta__AT0 .def_169)))
(let ((.def_172 (* (- 50.0) .def_170)))
(let ((.def_182 (+ .def_177 .def_172)))
(let ((.def_183 (+ .def_175 .def_182)))
(let ((.def_184 (+ .def_180 .def_183)))
(let ((.def_201 (<= 0.0 .def_184)))
(let ((.def_202 (not .def_201)))
(let ((.def_230 (or .def_202 .def_203)))
(let ((.def_185 (<= .def_184 0.0 )))
(let ((.def_229 (or .def_185 .def_194)))
(let ((.def_231 (and .def_229 .def_230)))
(let ((.def_238 (or .def_231 .def_237)))
(let ((.def_186 (not .def_185)))
(let ((.def_215 (or .def_186 .def_193)))
(let ((.def_214 (or .def_201 .def_204)))
(let ((.def_216 (and .def_214 .def_215)))
(let ((.def_228 (or .def_216 .def_227)))
(let ((.def_239 (and .def_228 .def_238)))
(let ((.def_213 (and .def_185 .def_193)))
(let ((.def_240 (and .def_213 .def_239)))
(let ((.def_249 (and .def_240 .def_248)))
(let ((.def_276 (or .def_249 .def_275)))
(let ((.def_124 (* b.delta__AT0 .def_123)))
(let ((.def_125 (* 50.0 .def_124)))
(let ((.def_119 (* b.delta__AT0 .def_118)))
(let ((.def_121 (* 25.0 .def_119)))
(let ((.def_133 (+ .def_121 .def_125)))
(let ((.def_115 (* .def_74 .def_114)))
(let ((.def_117 (* 50.0 .def_115)))
(let ((.def_134 (+ .def_117 .def_133)))
(let ((.def_135 (+ .def_129 .def_134)))
(let ((.def_136 (+ .def_127 .def_135)))
(let ((.def_137 (+ .def_131 .def_136)))
(let ((.def_154 (<= .def_137 0.0 )))
(let ((.def_155 (not .def_154)))
(let ((.def_208 (or .def_155 .def_156)))
(let ((.def_138 (<= 0.0 .def_137)))
(let ((.def_207 (or .def_138 .def_143)))
(let ((.def_209 (and .def_207 .def_208)))
(let ((.def_205 (or .def_202 .def_204)))
(let ((.def_206 (not .def_205)))
(let ((.def_210 (or .def_206 .def_209)))
(let ((.def_139 (not .def_138)))
(let ((.def_198 (or .def_139 .def_142)))
(let ((.def_197 (or .def_154 .def_157)))
(let ((.def_199 (and .def_197 .def_198)))
(let ((.def_195 (or .def_186 .def_194)))
(let ((.def_196 (not .def_195)))
(let ((.def_200 (or .def_196 .def_199)))
(let ((.def_211 (and .def_200 .def_210)))
(let ((.def_168 (and .def_138 .def_142)))
(let ((.def_212 (and .def_168 .def_211)))
(let ((.def_277 (and .def_212 .def_276)))
(let ((.def_369 (or .def_277 .def_368)))
(let ((.def_97 (* b.delta__AT0 .def_96)))
(let ((.def_98 (* 200.0 .def_97)))
(let ((.def_93 (* .def_74 .def_92)))
(let ((.def_94 (* 200.0 .def_93)))
(let ((.def_104 (+ .def_94 .def_98)))
(let ((.def_89 (* .def_74 .def_88)))
(let ((.def_90 (* 100.0 .def_89)))
(let ((.def_105 (+ .def_90 .def_104)))
(let ((.def_84 (* .def_75 .def_83)))
(let ((.def_86 (* 200.0 .def_84)))
(let ((.def_106 (+ .def_86 .def_105)))
(let ((.def_76 (* b.delta__AT0 .def_75)))
(let ((.def_78 (* 2401.0 .def_76)))
(let ((.def_107 (+ .def_78 .def_106)))
(let ((.def_71 (* b.speed_x__AT0 b.delta__AT0)))
(let ((.def_73 (* 100.0 .def_71)))
(let ((.def_108 (+ .def_73 .def_107)))
(let ((.def_56 (* b.y__AT0 b.y__AT0)))
(let ((.def_100 (* 100.0 .def_56)))
(let ((.def_109 (+ .def_100 .def_108)))
(let ((.def_102 (* 100.0 b.x__AT0)))
(let ((.def_110 (+ .def_102 .def_109)))
(let ((.def_148 (<= .def_110 0.0 )))
(let ((.def_162 (not .def_148)))
(let ((.def_57 (+ b.x__AT0 .def_56)))
(let ((.def_146 (<= .def_57 0.0 )))
(let ((.def_163 (or .def_146 .def_162)))
(let ((.def_58 (<= 0.0 .def_57)))
(let ((.def_160 (not .def_58)))
(let ((.def_111 (<= 0.0 .def_110)))
(let ((.def_161 (or .def_111 .def_160)))
(let ((.def_164 (and .def_161 .def_163)))
(let ((.def_158 (or .def_155 .def_157)))
(let ((.def_159 (not .def_158)))
(let ((.def_165 (or .def_159 .def_164)))
(let ((.def_150 (not .def_111)))
(let ((.def_151 (or .def_58 .def_150)))
(let ((.def_147 (not .def_146)))
(let ((.def_149 (or .def_147 .def_148)))
(let ((.def_152 (and .def_149 .def_151)))
(let ((.def_144 (or .def_139 .def_143)))
(let ((.def_145 (not .def_144)))
(let ((.def_153 (or .def_145 .def_152)))
(let ((.def_166 (and .def_153 .def_165)))
(let ((.def_112 (and .def_58 .def_111)))
(let ((.def_167 (and .def_112 .def_166)))
(let ((.def_370 (and .def_167 .def_369)))
(let ((.def_64 (<= b.speed_loss__AT0 (/ 1 2))))
(let ((.def_61 (<= (/ 1 10) b.speed_loss__AT0)))
(let ((.def_65 (and .def_61 .def_64)))
(let ((.def_371 (and .def_65 .def_370)))
(let ((.def_66 (and .def_58 .def_65)))
(let ((.def_53 (not b.EVENT.0__AT0)))
(let ((.def_51 (not b.EVENT.1__AT0)))
(let ((.def_54 (or .def_51 .def_53)))
(let ((.def_9 (not b.counter.0__AT0)))
(let ((.def_6 (not b.counter.1__AT0)))
(let ((.def_44 (or .def_6 .def_9)))
(let ((.def_48 (or b.counter.3__AT0 .def_44)))
(let ((.def_45 (or b.counter.2__AT0 .def_44)))
(let ((.def_4 (not b.counter.2__AT0)))
(let ((.def_43 (or .def_4 .def_9)))
(let ((.def_46 (and .def_43 .def_45)))
(let ((.def_14 (not b.counter.3__AT0)))
(let ((.def_47 (or .def_14 .def_46)))
(let ((.def_49 (and .def_47 .def_48)))
(let ((.def_55 (and .def_49 .def_54)))
(let ((.def_67 (and .def_55 .def_66)))
(let ((.def_10 (and .def_6 .def_9)))
(let ((.def_40 (and .def_4 .def_10)))
(let ((.def_41 (and .def_14 .def_40)))
(let ((.def_38 (= b.speed_y__AT0 1.0 )))
(let ((.def_35 (= b.speed_x__AT0 1.0 )))
(let ((.def_31 (= b.y__AT0 10.0 )))
(let ((.def_27 (= b.x__AT0 (- 9.0) )))
(let ((.def_21 (= b.time__AT0 0.0 )))
(let ((.def_23 (and .def_21 b.event_is_timed__AT0)))
(let ((.def_28 (and .def_23 .def_27)))
(let ((.def_32 (and .def_28 .def_31)))
(let ((.def_36 (and .def_32 .def_35)))
(let ((.def_39 (and .def_36 .def_38)))
(let ((.def_42 (and .def_39 .def_41)))
(let ((.def_68 (and .def_42 .def_67)))
(let ((.def_16 (or .def_10 b.counter.3__AT0)))
(let ((.def_11 (or b.counter.2__AT0 .def_10)))
(let ((.def_7 (or .def_4 .def_6)))
(let ((.def_12 (and .def_7 .def_11)))
(let ((.def_15 (or .def_12 .def_14)))
(let ((.def_17 (and .def_15 .def_16)))
(let ((.def_18 (not .def_17)))
(let ((.def_69 (and .def_18 .def_68)))
(let ((.def_372 (and .def_69 .def_371)))
.def_372))))))))))))))))))))))))))))))))))))))))))))))))))))))))))))))))))))))))))))))))))))))))))))))))))))))))))))))))))))))))))))))))))))))))))))))))))))))))))))))))))))))))))))))))))))))))))))))))))))))))))))))))))))))))))))))))))))))))))))))))))))))))))))))))))))))))))))))))))))))))))))))))))))))))))))
(check-sat)
(exit)
